<instance format="XCSP3" type="CSP">
  <variables>
    <array id="x" note="x[i] is the value associated to the ith letter of the alphabet." size="[26]"> 1..26 </array>
  </variables>
  <constraints>
    <allDifferent> x[] </allDifferent>
    <sum>
      <list> x[1] x[0] x[11] x[11] x[4] x[19] </list>
      <condition> (eq,45) </condition>
    </sum>
    <sum>
      <list> x[2] x[4] x[11] x[11] x[14] </list>
      <condition> (eq,43) </condition>
    </sum>
    <sum>
      <list> x[2] x[14] x[13] x[2] x[4] x[17] x[19] </list>
      <condition> (eq,74) </condition>
    </sum>
    <sum>
      <list> x[5] x[11] x[20] x[19] x[4] </list>
      <condition> (eq,30) </condition>
    </sum>
    <sum>
      <list> x[5] x[20] x[6] x[20] x[4] </list>
      <condition> (eq,50) </condition>
    </sum>
    <sum>
      <list> x[6] x[11] x[4] x[4] </list>
      <condition> (eq,66) </condition>
    </sum>
    <sum>
      <list> x[9] x[0] x[25] x[25] </list>
      <condition> (eq,58) </condition>
    </sum>
    <sum>
      <list> x[11] x[24] x[17] x[4] </list>
      <condition> (eq,47) </condition>
    </sum>
    <sum>
      <list> x[14] x[1] x[14] x[4] </list>
      <condition> (eq,53) </condition>
    </sum>
    <sum>
      <list> x[14..15] x[4] x[17] x[0] </list>
      <condition> (eq,65) </condition>
    </sum>
    <sum>
      <list> x[15] x[14] x[11] x[10] x[0] </list>
      <condition> (eq,59) </condition>
    </sum>
    <sum>
      <list> x[16] x[20] x[0] x[17] x[19] x[4] x[19] </list>
      <condition> (eq,50) </condition>
    </sum>
    <sum>
      <list> x[18] x[0] x[23] x[14..15] x[7] x[14] x[13] x[4] </list>
      <condition> (eq,134) </condition>
    </sum>
    <sum>
      <list> x[18] x[2] x[0] x[11] x[4] </list>
      <condition> (eq,51) </condition>
    </sum>
    <sum>
      <list> x[18] x[14] x[11] x[14] </list>
      <condition> (eq,37) </condition>
    </sum>
    <sum>
      <list> x[18] x[14] x[13] x[6] </list>
      <condition> (eq,61) </condition>
    </sum>
    <sum>
      <list> x[18] x[14..15] x[17] x[0] x[13..14] </list>
      <condition> (eq,82) </condition>
    </sum>
    <sum>
      <list> x[19] x[7] x[4] x[12] x[4] </list>
      <condition> (eq,72) </condition>
    </sum>
    <sum>
      <list> x[21] x[8] x[14] x[11] x[8] x[13] </list>
      <condition> (eq,100) </condition>
    </sum>
    <sum>
      <list> x[22] x[0] x[11] x[19] x[25] </list>
      <condition> (eq,34) </condition>
    </sum>
  </constraints>
</instance>
